Instance name: /mnt/c/Users/ORG/CLionProjects/uMV-FSTSP/Murray_Chu_2015_test_data/FSTSP/FSTSP_10_customer_problems/20140810T123443v9

drone speed: 0.6 miles/minute
uav non-eligible customer: 4 8 
Printing number of nodes: 11

Set parameter Threads to value 20
Gurobi Optimizer version 11.0.0 build v11.0.0rc2 (linux64 - "Ubuntu 22.04.3 LTS")

CPU model: 13th Gen Intel(R) Core(TM) i5-13500, instruction set [SSE2|AVX|AVX2]
Thread count: 10 physical cores, 20 logical processors, using up to 20 threads

Optimize a model with 6346 rows, 1825 columns and 197322 nonzeros
Model fingerprint: 0xa36f29a2
Variable types: 11 continuous, 1814 integer (1814 binary)
Coefficient statistics:
  Matrix range     [5e-01, 3e+01]
  Objective range  [1e+00, 3e+01]
  Bounds range     [1e+00, 1e+00]
  RHS range        [1e+00, 8e+00]
Found heuristic solution: objective 113.9780579
Presolve removed 953 rows and 811 columns
Presolve time: 0.51s
Presolved: 5393 rows, 1014 columns, 152404 nonzeros
Variable types: 8 continuous, 1006 integer (1006 binary)

Root relaxation: objective 3.970294e+01, 3594 iterations, 0.23 seconds (0.56 work units)

    Nodes    |    Current Node    |     Objective Bounds      |     Work
 Expl Unexpl |  Obj  Depth IntInf | Incumbent    BestBd   Gap | It/Node Time

     0     0   39.70294    0   85  113.97806   39.70294  65.2%     -    0s
H    0     0                      73.9893419   39.70294  46.3%     -    0s
H    0     0                      62.7891626   39.70294  36.8%     -    0s
     0     0   39.85633    0  103   62.78916   39.85633  36.5%     -    1s
H    0     0                      58.1291460   39.85633  31.4%     -    1s
     0     0   39.88278    0  102   58.12915   39.88278  31.4%     -    1s
     0     0   40.05000    0  106   58.12915   40.05000  31.1%     -    1s
H    0     0                      53.1280818   40.12799  24.5%     -    1s
     0     0   40.12799    0  106   53.12808   40.12799  24.5%     -    1s
     0     0   40.36019    0  138   53.12808   40.36019  24.0%     -    1s
H    0     0                      51.7258015   40.41557  21.9%     -    1s
H    0     0                      49.2478152   40.41557  17.9%     -    1s
     0     0   40.41557    0  139   49.24782   40.41557  17.9%     -    1s
     0     0   40.42553    0  164   49.24782   40.42553  17.9%     -    1s
     0     0   40.60456    0  128   49.24782   40.60456  17.6%     -    1s
     0     0   41.16278    0  150   49.24782   41.16278  16.4%     -    1s
     0     0   41.43004    0  156   49.24782   41.43004  15.9%     -    1s
H    0     0                      49.1640401   41.54382  15.5%     -    2s
     0     0   41.54382    0  154   49.16404   41.54382  15.5%     -    2s
H    0     0                      46.9313574   41.54382  11.5%     -    2s
     0     0   41.65767    0  155   46.93136   41.65767  11.2%     -    2s
     0     0   41.69774    0  155   46.93136   41.69774  11.2%     -    2s
     0     0   41.73811    0  168   46.93136   41.73811  11.1%     -    2s
     0     0   41.87855    0  164   46.93136   41.87855  10.8%     -    2s
     0     0   41.95629    0  168   46.93136   41.95629  10.6%     -    2s
     0     0   41.95629    0  167   46.93136   41.95629  10.6%     -    2s
     0     0   41.95629    0   93   46.93136   41.95629  10.6%     -    3s
     0     0   41.95629    0   94   46.93136   41.95629  10.6%     -    3s
     0     0   41.95629    0   92   46.93136   41.95629  10.6%     -    3s
     0     0   41.95629    0   93   46.93136   41.95629  10.6%     -    3s
     0     0   41.95629    0   99   46.93136   41.95629  10.6%     -    3s
     0     0   41.95629    0  156   46.93136   41.95629  10.6%     -    3s
     0     0   41.95629    0  158   46.93136   41.95629  10.6%     -    3s
     0     0   41.95629    0  161   46.93136   41.95629  10.6%     -    3s
     0     0   41.95629    0  169   46.93136   41.95629  10.6%     -    3s
     0     0   41.95629    0  170   46.93136   41.95629  10.6%     -    3s
     0     0   41.95629    0   97   46.93136   41.95629  10.6%     -    3s
     0     0   41.95629    0  171   46.93136   41.95629  10.6%     -    3s
     0     0   41.95629    0  121   46.93136   41.95629  10.6%     -    4s
     0     0   41.95629    0  119   46.93136   41.95629  10.6%     -    4s
     0     0   41.95629    0  119   46.93136   41.95629  10.6%     -    4s
     0     2   41.95629    0  119   46.93136   41.95629  10.6%     -    4s
    83    30   44.58434   10   70   46.93136   43.72307  6.84%  88.9    5s

Cutting planes:
  Gomory: 3
  Cover: 3
  Implied bound: 1
  MIR: 15
  StrongCG: 1
  Zero half: 14
  RLT: 16

Explored 218 nodes (19763 simplex iterations) in 5.33 seconds (9.69 work units)
Thread count was 20 (of 20 available processors)

Solution count 9: 46.9314 49.164 49.2478 ... 113.978

Optimal solution found (tolerance 1.00e-04)
Best objective 4.693135735503e+01, best bound 4.693135735503e+01, gap 0.0000%
